39
150
120	1
118	1
116	1
115	3
114	1
113	1
112	1
111	1
109	2
108	1
107	1
104	1
95	1
92	1
90	1
88	1
80	1
73	1
72	1
71	2
69	1
68	2
65	2
49	1
48	1
46	1
45	1
42	1
38	3
37	2
35	2
33	1
32	1
28	1
25	1
24	1
22	1
21	2
16	1
